NAME : input100_7.txt .out.tour
COMMENT : Tour for input100_7.txt .tsp (Length 968.928)
TYPE : TOUR
DIMENSION : 100
TOUR_SECTION
1
27
38
68
15
89
81
47
76
80
51
100
7
92
90
20
49
86
78
23
31
48
28
19
2
46
77
57
71
73
18
66
36
84
79
50
58
70
85
93
12
40
62
34
54
55
87
25
30
45
42
56
14
64
94
82
61
98
10
29
26
60
4
33
39
43
99
32
53
41
11
74
35
97
16
83
5
69
13
88
63
24
3
44
52
8
65
59
37
21
67
91
96
75
22
72
9
17
6
95
1
